12 32 9 10
15 14 3 12 16 14 10 4 11 10 8 12 20 14 1 20 13 11 2 18 11 5 1 18 16 8 11 18 15 2 20 1 
2.69 5.14 2.44 1.4 4.5 2.04 3.94 6.39 7.78 4.29 7.14 6.44 1.46 1.72 0.36 4.86 3.83 6.56 6.39 0.23 6.06 4.09 5.62 1.43 0.91 4.99 2.24 2.17 2.03 7.34 7.57 3.69 
0.12 4.6 6.57 6.72 5.01 7.71 7.52 4.42 7.85 0.35 3.42 0.34 7.48 0.15 6.38 2.45 0.12 4.6 2.29 4.06 1.91 4.2 1.6 7.27 4.21 5.54 0.93 4.77 4.83 2.39 7.74 1.05 
4.51 1.21 3.53 5.3 4.77 0.28 4.24 0.93 0.51 5.82 3.63 7.73 1.92 2.02 7.86 1.96 4.56 2.49 7.74 1.8 6.51 1.06 2.48 5.87 4.92 2.62 3.28 6.79 3.88 0.19 6.47 4.76 
5.83 4.36 2.07 3.35 2.22 5.87 5.34 1.24 7.05 5.59 4.21 0.16 1.32 0.25 3.44 0.36 6.1 6.19 4.16 7.32 0.21 5.16 0.49 3.79 6.69 7.9 7 6.86 5.5 7.81 5.9 7.67 
4.68 3.55 4.38 5.93 7.08 5.1 5.67 0.4 6.52 6.45 3.1 1.31 6.96 7.73 1.5 1.2 5.27 7.28 7.02 2.59 5.04 2 5.82 6.11 0.13 1.91 7.83 5.41 4.92 5.17 3.3 3.16 
1.84 5.1 0.72 3.9 7.74 2 6.13 2.08 3.43 5.15 5.54 5.05 4.37 0.18 6.63 4.13 7.6 1.49 0.91 7.34 5.46 1.75 1.57 0.36 4.17 1.68 2.46 7.99 2.37 1.68 2.27 2.2 
3.68 0.86 2.42 0.06 2.31 2.52 4.71 3.46 7.63 6.62 1.27 6.59 0.68 1.05 7.73 7.71 6.33 6.49 2.36 7.34 0.21 1.08 2.17 0.5 3.58 0 3.95 2.89 2.71 1.53 0.51 4.68 
7.39 5.78 7.26 1.28 2.99 0.14 5.45 0.3 0.01 1.74 6.83 1.11 1.7 4.81 5.4 6.46 3.85 3.29 3.07 0.72 3.71 3.1 6.47 6.71 6.97 7.11 6.12 6.82 7.16 3.16 0.14 5.71 
3.27 4.37 5.73 0.34 7.83 2.08 6.16 2.6 1.02 3.24 7.04 0.43 6.02 1.46 0.16 5.46 6.38 0.69 2.97 2.57 7.01 2.29 5.69 5.76 7.6 7.67 6.32 1.6 1.81 7.24 0.57 7.81 
4 4 4 4 4 4 4 4 4 4 4 4 4 4 4 4 4 4 4 4 4 4 4 4 4 4 4 4 4 4 4 4 
1.37 1.46 2.4 6.8 7.78 3.32 4.21 3.15 2.28 0.34 3.98 3.92 3.84 5.55 1.14 5.41 6.52 0.71 4.46 0.2 4.2 7.17 4.56 3.78 0.85 1.63 7.68 4.41 2.46 1.79 1.77 1.03 
3.3 2.13 5.01 5.84 6.8 4.81 5.91 0.3 0.47 7.4 2.04 7.74 2.26 4.4 3.88 4.45 7.05 4.68 7.46 7.2 1.9 3.95 7.12 2.71 0.08 4.39 0.99 0.16 2.27 4.24 6.77 6.05 
1 1 1 1 1 1 1 1 1 1 1 1 1 1 1 1 1 1 1 1 1 1 1 1 1 1 1 1 1 1 1 1 
1 1 1 1 1 1 1 1 1 1 1 1 1 1 1 1 1 1 1 1 1 1 1 1 1 1 1 1 1 1 1 1 
1 1 1 1 1 1 1 1 1 1 1 1 1 1 1 1 1 1 1 1 1 1 1 1 1 1 1 1 1 1 1 1 
1 1 1 1 1 1 1 1 1 1 1 1 1 1 1 1 1 1 1 1 1 1 1 1 1 1 1 1 1 1 1 1 
1 1 1 1 1 1 1 1 1 1 1 1 1 1 1 1 1 1 1 1 1 1 1 1 1 1 1 1 1 1 1 1 
1 1 1 1 1 1 1 1 1 1 1 1 1 1 1 1 1 1 1 1 1 1 1 1 1 1 1 1 1 1 1 1 
1 1 1 1 1 1 1 1 1 1 1 1 1 1 1 1 1 1 1 1 1 1 1 1 1 1 1 1 1 1 1 1 
1 1 1 1 1 1 1 1 1 1 1 1 1 1 1 1 1 1 1 1 1 1 1 1 1 1 1 1 1 1 1 1 
1 1 1 1 1 1 1 1 1 1 1 1 1 1 1 1 1 1 1 1 1 1 1 1 1 1 1 1 1 1 1 1 
1 1 1 1 1 1 1 1 1 1 1 1 1 1 1 1 1 1 1 1 1 1 1 1 1 1 1 1 1 1 1 1 
1 1 1 1 1 1 1 1 1 1 1 1 1 1 1 1 1 1 1 1 1 1 1 1 1 1 1 1 1 1 1 1 
1 1 1 1 1 1 1 1 1 1 1 1 1 1 1 1 1 1 1 1 1 1 1 1 1 1 1 1 1 1 1 1 
0.01 0.01 0.01 0.01 0.01 0.01 0.01 0.01 0.01 0.01 0.01 0.01 0.01 0.01 0.01 0.01 0.01 0.01 0.01 0.01 0.01 0.01 0.01 0.01 0.01 0.01 0.01 0.01 0.01 0.01 0.01 0.01 
0.02 0.02 0.02 0.02 0.02 0.02 0.02 0.02 0.02 0.02 0.02 0.02 0.02 0.02 0.02 0.02 0.02 0.02 0.02 0.02 0.02 0.02 0.02 0.02 0.02 0.02 0.02 0.02 0.02 0.02 0.02 0.02 
0.03 0.03 0.03 0.03 0.03 0.03 0.03 0.03 0.03 0.03 0.03 0.03 0.03 0.03 0.03 0.03 0.03 0.03 0.03 0.03 0.03 0.03 0.03 0.03 0.03 0.03 0.03 0.03 0.03 0.03 0.03 0.03 
0.04 0.04 0.04 0.04 0.04 0.04 0.04 0.04 0.04 0.04 0.04 0.04 0.04 0.04 0.04 0.04 0.04 0.04 0.04 0.04 0.04 0.04 0.04 0.04 0.04 0.04 0.04 0.04 0.04 0.04 0.04 0.04 
0.05 0.05 0.05 0.05 0.05 0.05 0.05 0.05 0.05 0.05 0.05 0.05 0.05 0.05 0.05 0.05 0.05 0.05 0.05 0.05 0.05 0.05 0.05 0.05 0.05 0.05 0.05 0.05 0.05 0.05 0.05 0.05 
0.06 0.06 0.06 0.06 0.06 0.06 0.06 0.06 0.06 0.06 0.06 0.06 0.06 0.06 0.06 0.06 0.06 0.06 0.06 0.06 0.06 0.06 0.06 0.06 0.06 0.06 0.06 0.06 0.06 0.06 0.06 0.06 
0.07 0.07 0.07 0.07 0.07 0.07 0.07 0.07 0.07 0.07 0.07 0.07 0.07 0.07 0.07 0.07 0.07 0.07 0.07 0.07 0.07 0.07 0.07 0.07 0.07 0.07 0.07 0.07 0.07 0.07 0.07 0.07 
0.08 0.08 0.08 0.08 0.08 0.08 0.08 0.08 0.08 0.08 0.08 0.08 0.08 0.08 0.08 0.08 0.08 0.08 0.08 0.08 0.08 0.08 0.08 0.08 0.08 0.08 0.08 0.08 0.08 0.08 0.08 0.08 
0.09 0.09 0.09 0.09 0.09 0.09 0.09 0.09 0.09 0.09 0.09 0.09 0.09 0.09 0.09 0.09 0.09 0.09 0.09 0.09 0.09 0.09 0.09 0.09 0.09 0.09 0.09 0.09 0.09 0.09 0.09 0.09 
0.1 0.1 0.1 0.1 0.1 0.1 0.1 0.1 0.1 0.1 0.1 0.1 0.1 0.1 0.1 0.1 0.1 0.1 0.1 0.1 0.1 0.1 0.1 0.1 0.1 0.1 0.1 0.1 0.1 0.1 0.1 0.1 
0.5 0.5 0.5 0.5 0.5 0.5 0.5 0.5 0.5 0.5 0.5 0.5 0.5 0.5 0.5 0.5 0.5 0.5 0.5 0.5 0.5 0.5 0.5 0.5 0.5 0.5 0.5 0.5 0.5 0.5 0.5 0.5 
1 1 1 1 1 1 1 1 1 1 1 1 1 1 1 1 1 1 1 1 1 1 1 1 1 1 1 1 1 1 1 1 
